(set-logic QF_S)
(declare-fun H () String)
(declare-fun I () String)
(declare-fun G () String)
(declare-fun F () String)
(declare-fun L () String)
(declare-fun N () String)
(declare-fun O () String)
(declare-fun Q () String)
(assert (= (str.++  G G H G "a" G "a" G G H G "a" G "b" I "ab" N "b" Q)  (str.++  "a" I F G "a" F L "aa" L "aab" L L L L "b" O O "baa") ))
(check-sat)
(get-model)
